\Problem name: 

Minimize
OBJROW: - y_1 - y_2 - y_3 - y_4 - y_5 - y_6
Subject To
constr(0):  x_1_A + x_2_A + x_3_A + x_4_A + x_5_A + x_6_A = 1
constr(1):  x_1_B + x_2_B + x_3_B + x_4_B + x_5_B + x_6_B = 1
constr(2):  x_1_C + x_2_C + x_3_C + x_4_C + x_5_C + x_6_C = 1
constr(3):  x_1_D + x_2_D + x_3_D + x_4_D + x_5_D + x_6_D = 1
constr(4):  x_1_E + x_2_E + x_3_E + x_4_E + x_5_E + x_6_E = 1
constr(5):  x_1_F + x_2_F + x_3_F + x_4_F + x_5_F + x_6_F = 1
constr(6):  x_1_A + x_1_B - y_1 <= -0
constr(7):  x_1_A + x_1_E - y_1 <= -0
constr(8):  x_1_A + x_1_C - y_1 <= -0
constr(9):  x_1_A + x_1_F - y_1 <= -0
constr(10):  x_1_B + x_1_D + x_1_F - y_1 <= -0
constr(11):  x_1_C - y_1 <= -0
constr(12):  x_1_C + x_1_D + x_1_E - y_1 <= -0
constr(13):  x_2_A + x_2_B - y_2 <= -0
constr(14):  x_2_A + x_2_E - y_2 <= -0
constr(15):  x_2_A + x_2_C - y_2 <= -0
constr(16):  x_2_A + x_2_F - y_2 <= -0
constr(17):  x_2_B + x_2_D + x_2_F - y_2 <= -0
constr(18):  x_2_C - y_2 <= -0
constr(19):  x_2_C + x_2_D + x_2_E - y_2 <= -0
constr(20):  x_3_A + x_3_B - y_3 <= -0
constr(21):  x_3_A + x_3_E - y_3 <= -0
constr(22):  x_3_A + x_3_C - y_3 <= -0
constr(23):  x_3_A + x_3_F - y_3 <= -0
constr(24):  x_3_B + x_3_D + x_3_F - y_3 <= -0
constr(25):  x_3_C - y_3 <= -0
constr(26):  x_3_C + x_3_D + x_3_E - y_3 <= -0
constr(27):  x_4_A + x_4_B - y_4 <= -0
constr(28):  x_4_A + x_4_E - y_4 <= -0
constr(29):  x_4_A + x_4_C - y_4 <= -0
constr(30):  x_4_A + x_4_F - y_4 <= -0
constr(31):  x_4_B + x_4_D + x_4_F - y_4 <= -0
constr(32):  x_4_C - y_4 <= -0
constr(33):  x_4_C + x_4_D + x_4_E - y_4 <= -0
constr(34):  x_5_A + x_5_B - y_5 <= -0
constr(35):  x_5_A + x_5_E - y_5 <= -0
constr(36):  x_5_A + x_5_C - y_5 <= -0
constr(37):  x_5_A + x_5_F - y_5 <= -0
constr(38):  x_5_B + x_5_D + x_5_F - y_5 <= -0
constr(39):  x_5_C - y_5 <= -0
constr(40):  x_5_C + x_5_D + x_5_E - y_5 <= -0
constr(41):  x_6_A + x_6_B - y_6 <= -0
constr(42):  x_6_A + x_6_E - y_6 <= -0
constr(43):  x_6_A + x_6_C - y_6 <= -0
constr(44):  x_6_A + x_6_F - y_6 <= -0
constr(45):  x_6_B + x_6_D + x_6_F - y_6 <= -0
constr(46):  x_6_C - y_6 <= -0
constr(47):  x_6_C + x_6_D + x_6_E - y_6 <= -0
Bounds
 0 <= x_1_A <= 1
 0 <= x_1_B <= 1
 0 <= x_1_C <= 1
 0 <= x_1_D <= 1
 0 <= x_1_E <= 1
 0 <= x_1_F <= 1
 0 <= x_2_A <= 1
 0 <= x_2_B <= 1
 0 <= x_2_C <= 1
 0 <= x_2_D <= 1
 0 <= x_2_E <= 1
 0 <= x_2_F <= 1
 0 <= x_3_A <= 1
 0 <= x_3_B <= 1
 0 <= x_3_C <= 1
 0 <= x_3_D <= 1
 0 <= x_3_E <= 1
 0 <= x_3_F <= 1
 0 <= x_4_A <= 1
 0 <= x_4_B <= 1
 0 <= x_4_C <= 1
 0 <= x_4_D <= 1
 0 <= x_4_E <= 1
 0 <= x_4_F <= 1
 0 <= x_5_A <= 1
 0 <= x_5_B <= 1
 0 <= x_5_C <= 1
 0 <= x_5_D <= 1
 0 <= x_5_E <= 1
 0 <= x_5_F <= 1
 0 <= x_6_A <= 1
 0 <= x_6_B <= 1
 0 <= x_6_C <= 1
 0 <= x_6_D <= 1
 0 <= x_6_E <= 1
 0 <= x_6_F <= 1
 0 <= y_1 <= 1
 0 <= y_2 <= 1
 0 <= y_3 <= 1
 0 <= y_4 <= 1
 0 <= y_5 <= 1
 0 <= y_6 <= 1
Integers
x_1_A x_1_B x_1_C x_1_D x_1_E x_1_F x_2_A x_2_B x_2_C x_2_D 
x_2_E x_2_F x_3_A x_3_B x_3_C x_3_D x_3_E x_3_F x_4_A x_4_B 
x_4_C x_4_D x_4_E x_4_F x_5_A x_5_B x_5_C x_5_D x_5_E x_5_F 
x_6_A x_6_B x_6_C x_6_D x_6_E x_6_F y_1 y_2 y_3 y_4 
y_5 y_6 
End
